proyfinal/src/viki/013/experimentInOfficeAgust.take6.output/693b468f-2028-45de-b73d-bd3c69644d70.als.dat
{'cnf.clauses': '118081',
 'cnf.totvars': '69608',
 'conflict literals': '58',
 'conflicts': '31',
 'decisions': '10900',
 'memused.mb': '17.61',
 'outcome': 'UNSAT',
 'propagations': '40232',
 'restarts': '1',
 'solver.msecs': 28,
 'task.msecs': 104}
