proyfinal/src/viki/013/experimentInOfficeAgust.take6.output/693b468f-2028-45de-b73d-bd3c69644d70.als.out
Reading from standard input... Use '--help' for help.
============================[ Problem Statistics ]=============================
|                                                                             |
|  Number of variables:         69608                                         |
|  Number of clauses:          118081                                         |
|  Parse time:                   0.02 s                                       |
|                                                                             |
============================[ Search Statistics ]==============================
| Conflicts |          ORIGINAL         |          LEARNT          | Progress |
|           |    Vars  Clauses Literals |    Limit  Clauses Lit/Cl |          |
===============================================================================
===============================================================================
restarts              : 1
conflicts             : 31             (1073 /sec)
decisions             : 10900          (0.00 % random) (377332 /sec)
propagations          : 40232          (1392737 /sec)
conflict literals     : 58             (0.00 % deleted)
Memory used           : 17.61 MB
CPU time              : 0.028887 s

UNSATISFIABLE
